c Generated map
c Size: 8 * 8, weights in range: 1 to 10, walls: True, with ratio 0.1
c dim 7 of 9
c
p sp 64 93
c graph contains 64 nodes and 93 arcs
c
a 1 2 10
a 2 1 10
a 2 10 1
a 10 2 1
a 2 3 10
a 3 2 10
a 3 11 5
a 11 3 5
a 3 4 9
a 4 3 9
a 4 12 1
a 12 4 1
a 4 5 1
a 5 4 1
a 5 13 5
a 13 5 5
a 5 6 7
a 6 5 7
a 6 14 10
a 14 6 10
a 6 7 3
a 7 6 3
a 7 15 4
a 15 7 4
a 7 8 8
a 8 7 8
a 8 16 8
a 16 8 8
a 10 18 10
a 18 10 10
a 10 11 6
a 11 10 6
a 11 19 3
a 19 11 3
a 11 12 7
a 12 11 7
a 12 20 6
a 20 12 6
a 12 13 1
a 13 12 1
a 13 21 6
a 21 13 6
a 13 14 3
a 14 13 3
a 14 15 3
a 15 14 3
a 15 23 1
a 23 15 1
a 15 16 4
a 16 15 4
a 16 24 9
a 24 16 9
a 17 25 4
a 25 17 4
a 17 18 7
a 18 17 7
a 18 19 2
a 19 18 2
a 19 27 4
a 27 19 4
a 19 20 4
a 20 19 4
a 20 28 7
a 28 20 7
a 20 21 7
a 21 20 7
a 21 29 8
a 29 21 8
a 23 31 3
a 31 23 3
a 23 24 2
a 24 23 2
a 24 32 4
a 32 24 4
a 25 33 6
a 33 25 6
a 27 35 6
a 35 27 6
a 27 28 4
a 28 27 4
a 28 36 4
a 36 28 4
a 28 29 1
a 29 28 1
a 29 37 8
a 37 29 8
a 29 30 2
a 30 29 2
a 30 38 4
a 38 30 4
a 30 31 2
a 31 30 2
a 31 39 1
a 39 31 1
a 31 32 9
a 32 31 9
a 32 40 7
a 40 32 7
a 33 41 9
a 41 33 9
a 33 34 3
a 34 33 3
a 34 42 9
a 42 34 9
a 34 35 7
a 35 34 7
a 35 43 6
a 43 35 6
a 35 36 4
a 36 35 4
a 36 44 5
a 44 36 5
a 36 37 4
a 37 36 4
a 37 45 5
a 45 37 5
a 37 38 7
a 38 37 7
a 38 46 5
a 46 38 5
a 38 39 6
a 39 38 6
a 39 47 10
a 47 39 10
a 39 40 10
a 40 39 10
a 40 48 3
a 48 40 3
a 41 49 9
a 49 41 9
a 41 42 4
a 42 41 4
a 42 50 7
a 50 42 7
a 42 43 2
a 43 42 2
a 43 51 1
a 51 43 1
a 43 44 7
a 44 43 7
a 44 52 9
a 52 44 9
a 44 45 2
a 45 44 2
a 45 53 2
a 53 45 2
a 45 46 2
a 46 45 2
a 46 54 2
a 54 46 2
a 46 47 4
a 47 46 4
a 47 55 4
a 55 47 4
a 47 48 8
a 48 47 8
a 49 57 9
a 57 49 9
a 49 50 4
a 50 49 4
a 50 58 9
a 58 50 9
a 50 51 9
a 51 50 9
a 51 52 10
a 52 51 10
a 52 53 8
a 53 52 8
a 53 61 6
a 61 53 6
a 53 54 4
a 54 53 4
a 54 62 2
a 62 54 2
a 54 55 10
a 55 54 10
a 55 63 1
a 63 55 1
a 57 58 2
a 58 57 2
a 61 62 6
a 62 61 6
a 62 63 3
a 63 62 3
a 63 64 7
a 64 63 7
